{"lblp_lower": [285.52603580284296, 299.24765064502947, 301.39619175157367, 304.7312397837845, 307.4943856990858, 309.2710523657525, 310.4431610147875, 311.4310523657525, 315.7210872679479, 316.0295683856097], "cuttingPlaneBendInfo": [{"tot_cut_value": 0, "TOT_gen_cut": 0, "tot_time_opt": 0, "max_time_opt": 0}, {"tot_cut_value": 0, "TOT_gen_cut": 0, "tot_time_opt": 0, "max_time_opt": 0}, {"tot_cut_value": 0, "TOT_gen_cut": 0, "tot_time_opt": 0, "max_time_opt": 0}, {"tot_cut_value": 0, "TOT_gen_cut": 0, "tot_time_opt": 0, "max_time_opt": 0}, {"tot_cut_value": 0, "TOT_gen_cut": 0, "tot_time_opt": 0, "max_time_opt": 0}, {"tot_cut_value": 0, "TOT_gen_cut": 0, "tot_time_opt": 0, "max_time_opt": 0}, {"tot_cut_value": 0, "TOT_gen_cut": 0, "tot_time_opt": 0, "max_time_opt": 0}, {"tot_cut_value": 0, "TOT_gen_cut": 0, "tot_time_opt": 0, "max_time_opt": 0}, {"tot_cut_value": 0, "TOT_gen_cut": 0, "tot_time_opt": 0, "max_time_opt": 0}, {"tot_cut_value": 0, "TOT_gen_cut": 0, "tot_time_opt": 0, "max_time_opt": 0}], "time_compress": [0, 0, 0, 0, 0, 0, 0, 0, 0, 0], "ub_lp": [518.7007583877178, 390.6239936252744, 388.7262372362933, 388.68105236575246, 346.6652304275837, 338.2310523657525, 338.2310523657525, 338.2310523657524, 316.0857584156872, 316.0295683856097], "prob_sizes_at_start": [{"ngGraph": 52}, {"ngGraph": 133}, {"ngGraph": 170}, {"ngGraph": 199}, {"ngGraph": 210}, {"ngGraph": 208}, {"ngGraph": 209}, {"ngGraph": 208}, {"ngGraph": 212}, {"ngGraph": 219}], "prob_sizes_after_compress": [{"ngGraph": 41}, {"ngGraph": 54}, {"ngGraph": 74}, {"ngGraph": 91}, {"ngGraph": 98}, {"ngGraph": 91}, {"ngGraph": 98}, {"ngGraph": 94}, {"ngGraph": 92}, {"ngGraph": 84}], "prob_sizes_after_split": [{"ngGraph": 133}, {"ngGraph": 170}, {"ngGraph": 199}, {"ngGraph": 210}, {"ngGraph": 208}, {"ngGraph": 209}, {"ngGraph": 208}, {"ngGraph": 212}, {"ngGraph": 219}, {"ngGraph": 119}], "did_compress": [true, true, true, true, true, true, true, true, true, true], "lp_time_project": [0.019913911819458008, 0.008121252059936523, 0.0070073604583740234, 0.006654977798461914, 0.007788896560668945, 0.007050037384033203, 0.006371259689331055, 0.00662994384765625, 0.008285999298095703, 0.0067958831787109375], "lp_time_LB": [0.13352704048156738, 0.04428291320800781, 0.059931039810180664, 0.05911111831665039, 0.06988811492919922, 0.06178689002990723, 0.05800914764404297, 0.06479310989379883, 0.05782032012939453, 0.05761313438415527], "ilp_time": [], "history_of_graphs_by_iter": [], "ROOT_LP_PRIOR_ADDING_CUTS": 316.0295683856097, "OUR_ilp_objective": 361.4000000000001, "OUR_MIP_Lower_Bound": 361.40000000000003, "OUR_ilp_time": 21.247191190719604, "OUR_gurobi_MILP_str": "Gurobi Optimizer version 12.0.1 build v12.0.1rc0 (mac64[arm] - Darwin 24.5.0 24F74)\n\nCPU model: Apple M1\nThread count: 8 physical cores, 8 logical processors, using up to 8 threads\n\nNon-default parameters:\nTimeLimit  1000\n\nWLS license 2690165 - registered to Optym\nOptimize a model with 8624 rows, 6875 columns and 38769 nonzeros\nModel fingerprint: 0x940d7f71\nVariable types: 4712 continuous, 2163 integer (2163 binary)\nCoefficient statistics:\n  Matrix range     [3e-01, 1e+03]\n  Objective range  [1e+00, 6e+01]\n  Bounds range     [1e+00, 1e+03]\n  RHS range        [1e+00, 1e+03]\nPresolve removed 4557 rows and 4081 columns\nPresolve time: 0.08s\nPresolved: 4067 rows, 2794 columns, 36820 nonzeros\nVariable types: 767 continuous, 2027 integer (2019 binary)\nFound heuristic solution: objective 2407.8000000\nFound heuristic solution: objective 2373.9000000\nFound heuristic solution: objective 2369.4000000\n\nRoot relaxation: objective 3.160490e+02, 880 iterations, 0.02 seconds (0.04 work units)\n\n    Nodes    |    Current Node    |     Objective Bounds      |     Work\n Expl Unexpl |  Obj  Depth IntInf | Incumbent    BestBd   Gap | It/Node Time\n\n     0     0  316.04905    0   63 2369.40000  316.04905  86.7%     -    0s\nH    0     0                    1179.2000000  316.04905  73.2%     -    0s\nH    0     0                     680.1000000  316.04905  53.5%     -    0s\nH    0     0                     515.4000000  316.04905  38.7%     -    0s\nH    0     0                     507.5000000  316.04905  37.7%     -    0s\n     0     0  318.47984    0   70  507.50000  318.47984  37.2%     -    0s\n     0     0  319.18570    0   62  507.50000  319.18570  37.1%     -    0s\n     0     0  319.18795    0   62  507.50000  319.18795  37.1%     -    0s\n     0     0  327.14006    0   86  507.50000  327.14006  35.5%     -    0s\nH    0     0                     493.9000000  327.17645  33.8%     -    0s\nH    0     0                     490.2000000  327.17645  33.3%     -    0s\nH    0     0                     456.0000000  327.17645  28.3%     -    0s\nH    0     0                     452.9000000  327.17645  27.8%     -    0s\n     0     0  327.17645    0   90  452.90000  327.17645  27.8%     -    0s\n     0     0  327.17645    0   90  452.90000  327.17645  27.8%     -    0s\nH    0     0                     427.8000000  335.16136  21.7%     -    0s\n     0     0  335.16136    0   95  427.80000  335.16136  21.7%     -    0s\n     0     0  335.43107    0  103  427.80000  335.43107  21.6%     -    0s\n     0     0  335.43107    0  103  427.80000  335.43107  21.6%     -    0s\nH    0     0                     424.4000000  335.43107  21.0%     -    0s\nH    0     0                     423.8000000  335.43107  20.9%     -    0s\n     0     0  336.46284    0  102  423.80000  336.46284  20.6%     -    0s\nH    0     0                     423.0000000  336.48167  20.5%     -    0s\nH    0     0                     421.0000000  336.48167  20.1%     -    0s\n     0     0  336.96212    0  103  421.00000  336.96212  20.0%     -    0s\n     0     0  336.96606    0  103  421.00000  336.96606  20.0%     -    0s\n     0     0  336.96606    0  103  421.00000  336.96606  20.0%     -    0s\n     0     0  337.50346    0  103  421.00000  337.50346  19.8%     -    0s\nH    0     0                     419.7000000  337.53180  19.6%     -    0s\n     0     0  337.55437    0   93  419.70000  337.55437  19.6%     -    0s\n     0     0  337.55637    0  104  419.70000  337.55637  19.6%     -    0s\n     0     0  337.57201    0  104  419.70000  337.57201  19.6%     -    0s\n     0     0  337.57603    0  106  419.70000  337.57603  19.6%     -    0s\n     0     0  337.57603    0  111  419.70000  337.57603  19.6%     -    0s\n     0     0  337.57657    0  116  419.70000  337.57657  19.6%     -    0s\n     0     0  337.67706    0  115  419.70000  337.67706  19.5%     -    0s\nH    0     0                     417.6000000  337.68989  19.1%     -    0s\n     0     0  337.68989    0  115  417.60000  337.68989  19.1%     -    0s\n     0     0  337.68989    0  115  417.60000  337.68989  19.1%     -    1s\n     0     0  337.68989    0  115  417.60000  337.68989  19.1%     -    1s\n     0     0  337.70088    0  104  417.60000  337.70088  19.1%     -    1s\nH    0     0                     417.1000000  337.91617  19.0%     -    1s\n     0     2  337.91617    0  104  417.10000  337.91617  19.0%     -    1s\nH   79    87                     417.0000000  338.61733  18.8%  44.8    1s\nH   82    87                     415.4000000  338.61733  18.5%  44.1    1s\nH   99   103                     403.3000000  338.61733  16.0%  43.5    1s\nH 1112   910                     383.5000000  339.29029  11.5%  24.0    2s\nH 1675  1237                     378.6000000  340.21965  10.1%  22.3    3s\n  1690  1247  355.48919   42   88  378.60000  340.21965  10.1%  22.1    5s\nH 1700  1190                     371.2000000  340.68224  8.22%  22.0    5s\nH 1700  1130                     368.2000000  340.68224  7.47%  22.0    5s\nH 1700  1073                     366.7000000  340.68224  7.10%  22.0    5s\nH 1700  1019                     365.9000000  340.75856  6.87%  22.0    6s\nH 1700   968                     361.4000000  340.75856  5.71%  22.0    6s\n  1963  1066  356.41489   45   59  361.40000  343.39481  4.98%  28.4   10s\n  8179  1533  360.35281   57   39  361.40000  353.00814  2.32%  30.4   15s\n 14139   606  361.08941   46   55  361.40000  357.28338  1.14%  31.0   20s\n\nCutting planes:\n  Learned: 1\n  Gomory: 21\n  Cover: 83\n  Implied bound: 31\n  Projected implied bound: 23\n  Clique: 21\n  MIR: 42\n  Mixing: 5\n  StrongCG: 1\n  Flow cover: 97\n  GUB cover: 11\n  Inf proof: 3\n  Zero half: 29\n  Network: 1\n  RLT: 16\n  Relax-and-lift: 50\n\nExplored 16064 nodes (482464 simplex iterations) in 21.25 seconds (37.16 work units)\nThread count was 8 (of 8 available processors)\n\nSolution count 10: 361.4 365.9 366.7 ... 417\n\nOptimal solution found (tolerance 1.00e-04)\nBest objective 3.614000000000e+02, best bound 3.614000000000e+02, gap 0.0000%\n", "jy_opt": {"ParetoEps": 1e-05, "turn_off_time_windows": false, "deactivate_time_graph": false, "deactivate_demand_graph": false, "epsilon": 0.0001, "weight_slack_projector": 1e-05, "weight_compress": 0.01, "num_cust_use": 50, "dem_step_sz": 1, "time_step_sz": 25, "use_compression": 1, "max_iterations_loop_compress_project": 100, "do_round_dist_times": 1, "my_shift_bet_time_win": 0.0001, "num_terms_per_bin_init_construct": 10, "allOneBig_init": 0, "min_inc_2_compress": 0.1, "save_graph_each_iter": 0, "use_Xpress": 0, "use_ineq": false, "xpress_file_loc": "/Users/julian/Documents/FICO_Xpress_Config/xpauth.xpr", "run_baseline": 0, "verbose": 0, "use_NG_graph": false, "num_NG": 5, "in_demo_mode": 0, "threshold_split": 0.01, "offset_cost_edge_project": 0, "use_classic_compress": 1, "use_classic_compress_last": 0, "num_thresh_split_projector": 10, "lplb_solver": 4, "compresss_solver": 0, "proj_solver": 4, "use_julians_custom_lp_solver": 0, "do_ilp": 1, "roundingDiscretization_num_digits_keep": 3, "doExrtraRemovalEdgesLB": 0, "use_gurobi": 1, "max_ILP_time": 1000, "use_fancy_ng_graph": 1, "use_dem_graph": false, "use_time_graph": false, "num_multiplys_demand": 0, "DEBUG_ALLOW_DUMB_EDGES": 0, "add_all_ng_split_at_end": 0, "do_split_based_init": 1, "think_compress": 0, "use_delta_in_milp": [1], "use_delta_in_lp": 1, "turn_off_non_active_fg_project": 0, "use_new_valid_ineq": 0, "digit_mult_use": 10, "use_branch_on_g": true, "LAB_MP_ON": 0, "LAB_MP_neigh_use_power": 10, "LAB_MP_num_ineq_use": 10, "do_remove_actions_from_incumbant": 1, "ub_use_remove": 361.4, "use_packing_in_construction": 1, "maxVarsAdd_in_ITER": 10, "use_ng_size_init": 0, "do_presolve": 0, "use_diving_ineq": 0, "BEND_MIN_LP_OBJECTIVE_CUT": 0.1, "BEND_USE_RAND": 0, "BEND_MAX_SIZE_CHOOSE_K": 260, "BEND_VAL_STOP_ADDING_CUTS": 100000000, "BEND_MY_SIZES_USE": [9], "NUMERICAL_BEND_OFFSET_COST_CUT": 0.0001, "NUMERICAL_BEND_EPSILON_MULT_PARETO_OBJ": 0.001, "NO_PARETO_NUMERICAL_BEND_OFFSET_COST_CUT": 0, "NO_PARETO_BEND_VAL_STOP_ADDING_CUTS": 1, "NO_PARETO_EPSILON_MAX_VAL_CON": 0.01, "BENDERS_NEIGH_SZ_USE": 9, "Actions_of_given_sol": [], "all_vars_binary": 0, "use_ng": 1, "restore_after_each_step": 1, "compress_solver": 1, "DEBUG_NG_turn_off_CLEAN": false, "max_nodes_split": Infinity}, "output_ilp_solution": {"act_0_2": 1, "act_1_0": 1, "act_2_4": 1, "act_3_1": 1, "act_4_51": 1, "act_5_3": 1, "act_6_7": 1, "act_7_9": 1, "act_8_5": 1, "act_9_10": 1, "act_10_8": 1, "act_11_51": 1, "act_12_16": 1, "act_13_11": 1, "act_14_15": 1, "act_15_13": 1, "act_16_17": 1, "act_17_18": 1, "act_18_14": 1, "act_19_23": 1, "act_20_51": 1, "act_21_20": 1, "act_22_21": 1, "act_23_24": 1, "act_24_26": 1, "act_25_22": 1, "act_26_28": 1, "act_27_25": 1, "act_28_29": 1, "act_29_27": 1, "act_30_34": 1, "act_31_32": 1, "act_32_30": 1, "act_33_51": 1, "act_34_36": 1, "act_35_33": 1, "act_36_37": 1, "act_37_38": 1, "act_38_35": 1, "act_39_43": 1, "act_40_39": 1, "act_41_40": 1, "act_42_41": 1, "act_43_45": 1, "act_44_47": 1, "act_45_44": 1, "act_46_51": 1, "act_47_49": 1, "act_48_46": 1, "act_49_48": 1, "act_50_6": 1, "act_50_12": 1, "act_50_19": 1, "act_50_31": 1, "act_50_42": 1}, "Actions_of_given_sol": "none just used source and sink terms", "actions_used": ["act_0_2", "act_1_0", "act_2_4", "act_3_1", "act_4_51", "act_5_3", "act_6_7", "act_7_9", "act_8_5", "act_9_10", "act_10_8", "act_11_51", "act_12_16", "act_13_11", "act_14_15", "act_15_13", "act_16_17", "act_17_18", "act_18_14", "act_19_23", "act_20_51", "act_21_20", "act_22_21", "act_23_24", "act_24_26", "act_25_22", "act_26_28", "act_27_25", "act_28_29", "act_29_27", "act_30_34", "act_31_32", "act_32_30", "act_33_51", "act_34_36", "act_35_33", "act_36_37", "act_37_38", "act_38_35", "act_39_43", "act_40_39", "act_41_40", "act_42_41", "act_43_45", "act_44_47", "act_45_44", "act_46_51", "act_47_49", "act_48_46", "act_49_48", "act_50_6", "act_50_12", "act_50_19", "act_50_31", "act_50_42"], "init_default_solution_is_empty": false, "objective_of_initial_sol": 2407.7999999999984, "my_paths": "[[50, 6, 7, 9, 10, 8, 5, 3, 1, 0, 2, 4, 51], [50, 12, 16, 17, 18, 14, 15, 13, 11, 51], [50, 19, 23, 24, 26, 28, 29, 27, 25, 22, 21, 20, 51], [50, 31, 32, 30, 34, 36, 37, 38, 35, 33, 51], [50, 42, 41, 40, 39, 43, 45, 44, 47, 49, 48, 46, 51]]"}